c Sudoku solution
p cnf 729 0
257 0
273 0
299 0
323 0
338 0
369 0
376 0
385 0
422 0
445 0
489 0
525 0
562 0
596 0
618 0
647 0
651 0
682 0
721 0
841 0
877 0
883 0
917 0
767 0
397 0
311 0
127 0
587 0
437 0
531 0
934 0
946 0
786 0
955 0
963 0
352 0
344 0
248 0
143 0
156 0
742 0
549 0
988 0
758 0
864 0
859 0
828 0
929 0
779 0
794 0
895 0
119 0
639 0
693 0
675 0
733 0
715 0
468 0
666 0
416 0
513 0
624 0
453 0
554 0
578 0
214 0
226 0
232 0
135 0
161 0
265 0
281 0
812 0
836 0
184 0
172 0
198 0
971 0
992 0
474 0
491 0
